p td 60 90
0 57
0 1
0 15
0 29
1 49
1 7
1 48
1 5
2 26
2 7
2 54
2 34
2 55
2 22
3 42
3 22
3 55
4 54
4 19
5 41
5 46
5 47
5 34
6 22
6 21
7 27
8 45
8 56
8 46
8 55
8 48
9 46
9 50
10 15
10 38
11 21
11 44
11 29
13 38
14 56
14 15
14 28
14 22
15 25
16 59
16 40
16 41
16 17
17 33
17 58
17 38
18 56
19 25
19 21
19 39
20 43
20 52
20 57
21 59
21 40
22 24
23 58
23 50
24 31
26 31
29 30
29 31
30 37
30 45
31 43
31 40
32 45
33 54
33 39
36 39
38 41
38 43
38 47
40 54
40 59
40 58
42 56
43 54
44 57
45 59
45 55
46 55
46 49
51 54
52 57
